100 8
536 518
228 405
819 602
165 512
146 272
267 166
862 443
473 767
98 282
337 407
291 185
377 69
455 65
262 401
714 499
369 298
361 427
221 287
256 406
429 127
535 474
744 736
401 819
300 766
279 307
732 895
233 429
186 535
390 617
271 328
643 800
377 132
369 328
252 374
540 320
349 772
518 914
74 447
137 439
483 889
224 737
787 837
488 705
332 799
494 98
363 735
399 855
55 776
242 214
511 27
76 809
670 574
595 698
511 341
288 504
306 414
748 150
497 155
227 182
703 758
331 462
209 304
629 825
249 133
399 531
644 728
87 380
352 768
196 758
399 109
702 697
141 671
121 428
94 385
752 881
165 793
298 835
327 147
680 562
184 417
340 786
806 853
427 926
500 856
743 522
510 621
216 316
670 692
308 848
236 284
214 818
347 477
332 307
539 627
426 655
237 115
114 773
738 814
730 854
303 766
